
        $ From http://www.csplib.org/Problems/prob009/data/helmut.pdf
        $ Problem number 43
        $ Sequence length : 24
        language ESSENCE' 1.0
        letting sizemaster be 435
        letting sizes be sequence(1,2,8,10,13,19,23,33,44,45,56,74,76,78,80,88,93,100,112,131,142,143,150,192)
        